r = [
0,78,77,11,47,44,64,62,5,46,11,0
];
p = [
0,9,15,28,29,22,6,19,5,4,23,0
];
e = [
0,14,12,16,4,3,13,3,1,12,4,0
];
d = [
0,156,153,96,129,117,138,138,78,132,89,157
];
d_bar = [
0,157,155,99,132,119,139,140,79,133,91,157
];
w = [
0,14,6,5.333333333,1.333333333,1.5,13,1.5,1,12,2,0
];
